25 500
  0     35.0     35.0       0.0     1000.0      0.0       0.0       0.0  
  1     41.0     49.0       0.0      974.0     10.0       3.0      10.0  
  2     35.0     17.0       0.0      972.0     10.0      13.0       7.0  
  3     55.0     45.0       0.0      967.0     10.0      20.0      13.0  
  4     55.0     20.0      678.0     801.0     10.0      34.0      19.0  
  5     15.0     30.0       0.0      969.0     10.0      17.0      26.0  
  6     25.0     30.0      415.0     514.0     10.0       4.0       3.0  
  7     20.0     50.0       0.0      968.0     10.0       6.0       5.0  
  8     10.0     43.0      404.0     481.0     10.0      17.0       9.0  
  9     55.0     60.0      400.0     497.0     10.0       3.0      16.0  
 10     30.0     60.0      577.0     632.0     10.0       1.0      16.0  
 11     20.0     65.0      206.0     325.0     10.0       1.0      12.0  
 12     50.0     35.0       0.0      975.0     10.0      28.0      19.0  
 13     30.0     25.0      690.0     827.0     10.0      25.0      23.0  
 14     15.0     10.0      32.0      243.0     10.0      11.0      20.0  
 15     30.0      5.0      175.0     300.0     10.0       7.0       8.0  
 16     10.0     20.0      272.0     373.0     10.0      36.0      19.0  
 17      5.0     30.0      733.0     870.0     10.0       1.0       2.0  
 18     20.0     40.0      377.0     434.0     10.0       9.0      12.0  
 19     15.0     60.0      269.0     378.0     10.0      18.0      17.0  
 20     45.0     65.0      581.0     666.0     10.0      13.0       9.0  
 21     45.0     20.0       0.0      971.0     10.0      18.0      11.0  
 22     45.0     10.0      409.0     494.0     10.0       8.0      18.0  
 23     55.0      5.0      206.0     325.0     10.0      30.0      29.0  
 24     65.0     35.0      704.0     847.0     10.0       3.0       3.0  
 25     65.0     20.0      817.0     956.0     10.0       1.0       6.0  
